50
    1   355   345
    2   309   299
    3   203   193
    4   306   296
    5   477   467
    6   439   429
    7   110   100
    8    75    65
    9   151   141
   10   133   123
   11   301   291
   12   212   202
   13   180   170
   14   509   499
   15   291   281
   16   411   401
   17    56    46
   18   206   196
   19    69    59
   20   414   404
   21   367   357
   22   214   204
   23   110   100
   24   230   220
   25   503   493
   26   418   408
   27   171   161
   28   337   327
   29   216   206
   30   158   148
   31   264   254
   32   127   117
   33   320   310
   34   121   111
   35   435   425
   36    25    15
   37   268   258
   38   330   320
   39   417   407
   40   189   179
   41   124   114
   42   301   291
   43   323   313
   44   114   104
   45   411   401
   46   311   301
   47   506   496
   48   403   393
   49   360   350
   50   256   246
8690
